presolving:
   (0.2s) running MILP presolver
   (0.2s) MILP presolver found nothing
(round 1, exhaustive) 0 del vars, 0 del conss, 0 add conss, 0 chg bounds, 0 chg sides, 0 chg coeffs, 6378 upgd conss, 0 impls, 6330 clqs
(round 2, medium)     0 del vars, 6072 del conss, 6048 add conss, 0 chg bounds, 0 chg sides, 0 chg coeffs, 6378 upgd conss, 0 impls, 6330 clqs
   (5.2s) probing: 1000/6072 (16.5%) - 0 fixings, 0 aggregations, 623766 implications, 0 bound changes
   (5.2s) probing: 1001/6072 (16.5%) - 0 fixings, 0 aggregations, 625019 implications, 0 bound changes
   (5.2s) probing aborted: 1000/1000 successive useless probings
   (5.2s) symmetry computation started: requiring (bin +, int -, cont +), (fixed: bin -, int +, cont -)
   (5.2s) no symmetry present
presolving (3 rounds: 3 fast, 3 medium, 2 exhaustive):
 0 deleted vars, 6072 deleted constraints, 6048 added constraints, 0 tightened bounds, 0 added holes, 0 changed sides, 24 changed coefficients
 0 implications, 27552 cliques
presolved problem has 6072 variables (6072 bin, 0 int, 0 impl, 0 cont) and 6354 constraints
     24 constraints of type <knapsack>
   6330 constraints of type <setppc>
transformed objective value is always integral (scale: 1)
Presolving Time: 5.16

 time | node  | left  |LP iter|LP it/n|mem/heur|mdpt |vars |cons |rows |cuts |sepa|confs|strbr|  dualbound   | primalbound  |  gap   | compl. 
p 5.4s|     1 |     0 |     0 |     - |  clique|   0 |6072 |6354 |6354 |   0 |  0 |   0 |   0 | 0.000000e+00 | 1.989920e+05 |    Inf | unknown
  6.2s|     1 |     0 |  1202 |     - |    78M |   0 |6072 |6373 |6354 |   0 |  0 |  19 |   0 | 1.862753e+05 | 1.989920e+05 |   6.83%| unknown
  8.2s|     1 |     0 |  1240 |     - |    80M |   0 |6072 |6374 |6356 |   2 |  1 |  20 |   0 | 1.864682e+05 | 1.989920e+05 |   6.72%| unknown
 10.1s|     1 |     0 |  1338 |     - |    81M |   0 |6072 |6374 |6365 |  11 |  2 |  20 |   0 | 1.867848e+05 | 1.989920e+05 |   6.54%| unknown
 11.8s|     1 |     0 |  1405 |     - |    83M |   0 |6072 |6374 |6371 |  17 |  3 |  20 |   0 | 1.870363e+05 | 1.989920e+05 |   6.39%| unknown
 13.2s|     1 |     0 |  1619 |     - |    85M |   0 |6072 |6374 |6383 |  29 |  4 |  20 |   0 | 1.873738e+05 | 1.989920e+05 |   6.20%| unknown
 15.3s|     1 |     0 |  1711 |     - |    87M |   0 |6072 |6374 |6391 |  37 |  5 |  20 |   0 | 1.874888e+05 | 1.989920e+05 |   6.14%| unknown
 17.0s|     1 |     0 |  1780 |     - |    89M |   0 |6072 |6374 |6399 |  45 |  6 |  20 |   0 | 1.876483e+05 | 1.989920e+05 |   6.05%| unknown
 20.1s|     1 |     0 |  1867 |     - |    96M |   0 |6072 |6374 |6407 |  53 |  7 |  20 |   0 | 1.877490e+05 | 1.989920e+05 |   5.99%| unknown
 22.8s|     1 |     0 |  1978 |     - |   100M |   0 |6072 |6374 |6415 |  61 |  8 |  20 |   0 | 1.878033e+05 | 1.989920e+05 |   5.96%| unknown
 24.9s|     1 |     0 |  2103 |     - |   102M |   0 |6072 |6374 |6419 |  65 |  9 |  20 |   0 | 1.878664e+05 | 1.989920e+05 |   5.92%| unknown
 32.5s|     1 |     0 |  2172 |     - |   109M |   0 |6072 |6374 |6423 |  69 | 10 |  20 |   0 | 1.879044e+05 | 1.989920e+05 |   5.90%| unknown
 32.8s|     1 |     0 |  2300 |     - |   110M |   0 |6072 |6373 |6432 |  78 | 11 |  20 |   0 | 1.879739e+05 | 1.989920e+05 |   5.86%| unknown
 33.2s|     1 |     0 |  2390 |     - |   110M |   0 |6072 |6373 |6439 |  85 | 12 |  20 |   0 | 1.879954e+05 | 1.989920e+05 |   5.85%| unknown
 33.7s|     1 |     0 |  2490 |     - |   111M |   0 |6072 |6371 |6446 |  92 | 13 |  20 |   0 | 1.880306e+05 | 1.989920e+05 |   5.83%| unknown
 time | node  | left  |LP iter|LP it/n|mem/heur|mdpt |vars |cons |rows |cuts |sepa|confs|strbr|  dualbound   | primalbound  |  gap   | compl. 
 34.1s|     1 |     0 |  2586 |     - |   112M |   0 |6072 |6371 |6452 |  98 | 14 |  21 |   0 | 1.880943e+05 | 1.989920e+05 |   5.79%| unknown
 34.4s|     1 |     0 |  2587 |     - |   113M |   0 |6072 |6371 |6453 |  99 | 15 |  22 |   0 | 1.880965e+05 | 1.989920e+05 |   5.79%| unknown
 35.2s|     1 |     0 |  2632 |     - |   114M |   0 |6072 |6370 |6455 | 104 | 16 |  22 |   0 | 1.881233e+05 | 1.989920e+05 |   5.78%| unknown
 36.3s|     1 |     0 |  2705 |     - |   115M |   0 |6072 |6371 |6458 | 107 | 17 |  23 |   0 | 1.881597e+05 | 1.989920e+05 |   5.76%| unknown
 37.3s|     1 |     0 |  2794 |     - |   115M |   0 |6072 |6370 |6462 | 111 | 18 |  23 |   0 | 1.882344e+05 | 1.989920e+05 |   5.72%| unknown
 37.9s|     1 |     0 |  2871 |     - |   116M |   0 |6072 |6369 |6468 | 117 | 19 |  23 |   0 | 1.882581e+05 | 1.989920e+05 |   5.70%| unknown
 38.3s|     1 |     0 |  2915 |     - |   117M |   0 |6072 |6369 |6472 | 121 | 20 |  23 |   0 | 1.882856e+05 | 1.989920e+05 |   5.69%| unknown
 38.5s|     1 |     0 |  2928 |     - |   117M |   0 |6072 |6370 |6476 | 125 | 21 |  24 |   0 | 1.882877e+05 | 1.989920e+05 |   5.69%| unknown
d39.4s|     1 |     0 |  3862 |     - |farkasdi|   0 |6072 |6369 |6476 |   0 | 23 |  24 |   0 | 1.882877e+05 | 1.919010e+05 |   1.92%| unknown
 40.3s|     1 |     0 |  5434 |     - |   118M |   0 |6072 |6372 |6476 | 125 | 23 |  27 |   0 | 1.882877e+05 | 1.919010e+05 |   1.92%| unknown
 47.5s|     1 |     2 |  5434 |     - |   118M |   0 |6072 |6371 |6476 | 125 | 25 |  27 |  22 | 1.888571e+05 | 1.919010e+05 |   1.61%| unknown
*54.2s|     4 |     1 |  6758 |1327.7 |strongbr|   2 |6072 |6110 |6447 | 125 |  2 |  28 |  74 | 1.901215e+05 | 1.908790e+05 |   0.40%|  50.42%

SCIP Status        : problem is solved [optimal solution found]
Solving Time (sec) : 54.84
Solving Nodes      : 5
Primal Bound       : +1.90879000000000e+05 (4 solutions)
Dual Bound         : +1.90879000000000e+05
Gap                : 0.00 %
Solve Status: optimal
Solve Time: 54.84 seconds
Objective Value: 190879.00
